Name: Hypoxanthine
Precursor_mz: 159.0264477
Cas: 68-94-0
Adduct: [M+Na]+
Mz: 159.0277315
Comment: Major
Smiles: O=c1nc[nH]c2nc[nH]c12
Formula: C5H4N4O
Num Peaks: 6
48.992496490478516 154.0
63.006099700927734 265.0
63.99686813354492 663.0
65.9947509765625 596.0
79.02062225341797 521.0
81.01649475097656 659.0

