Name: Hypoxanthine
Precursor_mz: 159.0264477
Cas: 68-94-0
Adduct: [M+Na]+
Mz: 159.0277315
Comment: Major
Smiles: O=c1nc[nH]c2nc[nH]c12
Formula: C5H4N4O
Num Peaks: 56
48.992496490478516 0.025303080677986145
52.918853759765625 0.009803174063563347
55.38846969604492 0.004356965888291597
61.562095642089844 0.009803174063563347
61.8105354309082 0.008713931776583195
63.006099700927734 0.04353698343038559
63.99686813354492 0.10892415046691895
65.9947509765625 0.09791191667318344
67.32327270507812 0.010892415419220924
67.67036437988281 0.010892415419220924
69.4657211303711 0.01307089813053608
73.18115997314453 0.011981656774878502
75.92176055908203 0.00653544906526804
78.90474700927734 0.008713931776583195
79.02062225341797 0.0855925977230072
81.01649475097656 0.10827060788869858
81.67044067382812 0.009803174063563347
83.65972137451172 0.009803174063563347
84.8132095336914 0.0076246908865869045
85.74897766113281 0.008713931776583195
86.59619140625 0.009803174063563347
90.39550018310547 0.008713931776583195
93.23458099365234 0.010892415419220924
97.64111328125 0.010892415419220924
103.61840057373047 0.015249381773173809
104.12152099609375 0.004356965888291597
104.97118377685547 0.014160139486193657
105.63041687011719 0.014160139486193657
108.10420989990234 0.00653544906526804
116.48163604736328 0.008713931776583195
116.7865219116211 0.014160139486193657
122.1870346069336 0.011981656774878502
124.78248596191406 0.0076246908865869045
125.25070190429688 0.0076246908865869045
125.68344116210938 0.008713931776583195
126.87342834472656 0.01742786355316639
128.14511108398438 0.01307089813053608
131.4502410888672 0.009803174063563347
131.81118774414062 0.010892415419220924
134.67747497558594 0.011981656774878502
135.97589111328125 0.00653544906526804
136.62258911132812 0.009803174063563347
138.73590087890625 0.010892415419220924
139.31118774414062 0.014160139486193657
140.32350158691406 0.015249381773173809
143.8178253173828 0.011981656774878502
145.7304229736328 0.01307089813053608
147.58401489257812 0.015249381773173809
149.15835571289062 0.0076246908865869045
151.7621612548828 0.011981656774878502
154.16578674316406 0.011981656774878502
156.59463500976562 0.011981656774878502
157.204345703125 0.01307089813053608
157.62139892578125 0.015249381773173809
158.5679931640625 0.00653544906526804
158.81024169921875 0.0076246908865869045

