Name: Inosine
InChIKey: UGQMRVRMYYASKQ-KQYNXXCUSA-N
SMILES: O=c1[nH]cnc2c1ncn2[C@@H]1O[C@H](CO)[C@@H](O)[C@H]1O
RETENTIONTIME: 0.56
reference_rt: [0.547]
Spectrum_type: MS2
PrecursorMZ: 291.06943510065264
Formula: C10H12N4O5
ExactMass: 268.08076948400003
Precursor_type: [M+Na]+
Ion_mode: P
Comment: Major_ms1intensity+18878.0_ei_0.89
Spectrum_entropy: 0.8710286751819204
Num peaks: 11
55.057948948792394	26.0
60.987497557657406	26.0
71.08479913891917	26.0
97.02495014117366	26.0
103.05402140860603	26.0
129.02573986438534	26.0
133.00913524206425	26.0
153.0400998649835	26.0
159.02952945655997	1058.0
161.0675816265842	26.0
291.0574836244849	62.0

