Name: Hypoxanthine
Precursor_mz: 159.0264477
Cas: 68-94-0
Adduct: [M+Na]+
Mz: 159.0277315
Comment: Major
Smiles: O=c1nc[nH]c2nc[nH]c12
Formula: C5H4N4O
Mix: Alkaloids-pos-mix1
Rt: [0.36, 0.549, 0.454]
Rt_apex: 0.360642897
Rt_start: 0.335216667
Rt_end: 0.417716667
Ms1_intensity: 22945
N_scnas: 13
Ms1_scan_range: [104, 108, 118]
Reci_snr: 0.100502076
Ms2_scan_idx: 190
Pmz_offset: 2.84e-14
Ei: 0.707647059
Num Peaks: 56
48.992496490478516 0.024843059480190277
63.006099700927734 0.04274545982480049
63.99686813354492 0.10694386065006256
65.9947509765625 0.096131831407547
79.02062225341797 0.08403648436069489
81.01649475097656 0.10630220174789429
52.44233703613281 0.009624947793781757
60.49828338623047 0.006416631396859884
57.8909912109375 0.0074860705062747
70.70159149169922 0.009624947793781757
153.44297790527344 0.0074860705062747
64.20919799804688 0.01818045601248741
107.56151580810547 0.013902701437473297
136.95191955566406 0.0149721410125494
51.2140998840332 0.013902701437473297
108.25012969970703 0.0074860705062747
66.68694305419922 0.008555508218705654
107.91759490966797 0.008555508218705654
125.8533935546875 0.011763825081288815
68.26298522949219 0.008555508218705654
120.84152221679688 0.005347193218767643
112.3971939086914 0.005347193218767643
121.35533905029297 0.006416631396859884
150.95166015625 0.008555508218705654
68.10784912109375 0.0074860705062747
116.2686767578125 0.012833262793719769
106.4164047241211 0.012833262793719769
111.8351821899414 0.012833262793719769
87.5509262084961 0.0149721410125494
132.0790557861328 0.01711101643741131
137.29302978515625 0.005347193218767643
63.627071380615234 0.0074860705062747
113.58525085449219 0.005347193218767643
104.01454162597656 0.010694386437535286
119.16342163085938 0.006416631396859884
89.52986907958984 0.006416631396859884
57.93089294433594 0.012833262793719769
117.32965087890625 0.013902701437473297
85.80850219726562 0.012833262793719769
63.815582275390625 0.0074860705062747
121.87310028076172 0.0074860705062747
53.71483612060547 0.021388772875070572
146.24539184570312 0.012833262793719769
63.90321731567383 0.009624947793781757
56.589149475097656 0.012833262793719769
61.6278076171875 0.0149721410125494
82.1023178100586 0.008555508218705654
102.18174743652344 0.010694386437535286
109.69795989990234 0.013902701437473297
143.17950439453125 0.0074860705062747
145.10447692871094 0.021388772875070572
141.41754150390625 0.011763825081288815
87.33934783935547 0.012833262793719769
132.0148162841797 0.010694386437535286
63.11033248901367 0.010694386437535286
118.91644287109375 0.012833262793719769

